1885484
48,56,103,30,6,95,32,85,43,61,23,15,54,58,8,36,76,42,60,19,50,105,104,102,100,64,3,25,29,46,2,84,51,59,81,94,16,107,83,63,20,44,4,67,79,92,74,17,53,80,21,47,73,62,65,96,108,7,18,33,68,99,97,91,22,90,1,5,35,98,101,34,52,82,45,109,24,10,49,11,89,39,31,72,41,38,66,77,9,37,26,57,75,86,27,69,70,14,78,88,55,106,12,87,28,71,40,93,13